396,498
573,619
681,676
850,529
909,480
1194,572
857,648
512,237
521,325
737,761
810,805
751,503
672,434
521,487
361,569
396,498
415,448
651,406
685,377
699,288
681,-14
926,-75
852,351
698,382
672,465
681,676
737,761
668,432
651,406
600,246
417,42
681,-14
698,382
751,503
850,529
909,480
921,284
1001,243
600,246
512,237
417,42
307,216
536,301
668,432
672,465
532,700
